2 1
3 1
3 2
4 1
4 2
4 3
5 1
5 2
5 3
5 4
6 1
6 2
6 3
6 4
6 5
7 1
7 2
7 3
7 4
7 5
7 6
8 1
8 2
8 3
8 4
8 5
8 6
8 7
9 1
9 2
10 1
10 2
10 3
10 9
11 2
11 3
11 4
11 9
11 10
12 3
12 4
12 5
12 9
12 10
12 11
13 4
13 5
13 6
13 9
13 10
13 11
13 12
14 5
14 6
14 7
14 9
14 10
14 11
14 12
14 13
15 6
15 7
15 8
15 9
15 10
15 11
15 12
15 13
15 14
16 7
16 8
16 9
16 10
16 11
16 12
16 13
16 14
16 15
17 1
17 3
17 9
17 10
18 2
18 4
18 9
18 10
18 11
18 17
19 1
19 3
19 5
19 10
19 11
19 12
19 17
19 18
20 2
20 4
20 6
20 11
20 12
20 13
20 17
20 18
20 19
21 3
21 5
21 7
21 12
21 13
21 14
21 17
21 18
21 19
21 20
22 4
22 6
22 8
22 13
22 14
22 15
22 17
22 18
22 19
22 20
22 21
23 5
23 7
23 14
23 15
23 16
23 17
23 18
23 19
23 20
23 21
23 22
24 6
24 8
24 15
24 16
24 17
24 18
24 19
24 20
24 21
24 22
24 23
25 1
25 4
25 9
25 11
25 17
25 18
26 2
26 5
26 10
26 12
26 17
26 18
26 19
26 25
27 3
27 6
27 9
27 11
27 13
27 18
27 19
27 20
27 25
27 26
28 1
28 4
28 7
28 10
28 12
28 14
28 19
28 20
28 21
28 25
28 26
28 27
29 2
29 5
29 8
29 11
29 13
29 15
29 20
29 21
29 22
29 25
29 26
29 27
29 28
30 3
30 6
30 12
30 14
30 16
30 21
30 22
30 23
30 25
30 26
30 27
30 28
30 29
31 4
31 7
31 13
31 15
31 22
31 23
31 24
31 25
31 26
31 27
31 28
31 29
31 30
32 5
32 8
32 14
32 16
32 23
32 24
32 25
32 26
32 27
32 28
32 29
32 30
32 31
33 1
33 5
33 9
33 12
33 17
33 19
33 25
33 26
34 2
34 6
34 10
34 13
34 18
34 20
34 25
34 26
34 27
34 33
35 3
35 7
35 11
35 14
35 17
35 19
35 21
35 26
35 27
35 28
35 33
35 34
36 4
36 8
36 9
36 12
36 15
36 18
36 20
36 22
36 27
36 28
36 29
36 33
36 34
36 35
37 1
37 5
37 10
37 13
37 16
37 19
37 21
37 23
37 28
37 29
37 30
37 33
37 34
37 35
37 36
38 2
38 6
38 11
38 14
38 20
38 22
38 24
38 29
38 30
38 31
38 33
38 34
38 35
38 36
38 37
39 3
39 7
39 12
39 15
39 21
39 23
39 30
39 31
39 32
39 33
39 34
39 35
39 36
39 37
39 38
40 4
40 8
40 13
40 16
40 22
40 24
40 31
40 32
40 33
40 34
40 35
40 36
40 37
40 38
40 39
41 1
41 6
41 9
41 13
41 17
41 20
41 25
41 27
41 33
41 34
42 2
42 7
42 10
42 14
42 18
42 21
42 26
42 28
42 33
42 34
42 35
42 41
43 3
43 8
43 11
43 15
43 19
43 22
43 25
43 27
43 29
43 34
43 35
43 36
43 41
43 42
44 4
44 12
44 16
44 17
44 20
44 23
44 26
44 28
44 30
44 35
44 36
44 37
44 41
44 42
44 43
45 5
45 9
45 13
45 18
45 21
45 24
45 27
45 29
45 31
45 36
45 37
45 38
45 41
45 42
45 43
45 44
46 1
46 6
46 10
46 14
46 19
46 22
46 28
46 30
46 32
46 37
46 38
46 39
46 41
46 42
46 43
46 44
46 45
47 2
47 7
47 11
47 15
47 20
47 23
47 29
47 31
47 38
47 39
47 40
47 41
47 42
47 43
47 44
47 45
47 46
48 3
48 8
48 12
48 16
48 21
48 24
48 30
48 32
48 39
48 40
48 41
48 42
48 43
48 44
48 45
48 46
48 47
49 1
49 7
49 9
49 14
49 17
49 21
49 25
49 28
49 33
49 35
49 41
49 42
50 2
50 8
50 10
50 15
50 18
50 22
50 26
50 29
50 34
50 36
50 41
50 42
50 43
50 49
51 3
51 11
51 16
51 19
51 23
51 27
51 30
51 33
51 35
51 37
51 42
51 43
51 44
51 49
51 50
52 4
52 12
52 20
52 24
52 25
52 28
52 31
52 34
52 36
52 38
52 43
52 44
52 45
52 49
52 50
52 51
53 5
53 13
53 17
53 21
53 26
53 29
53 32
53 35
53 37
53 39
53 44
53 45
53 46
53 49
53 50
53 51
53 52
54 6
54 9
54 14
54 18
54 22
54 27
54 30
54 36
54 38
54 40
54 45
54 46
54 47
54 49
54 50
54 51
54 52
54 53
55 1
55 7
55 10
55 15
55 19
55 23
55 28
55 31
55 37
55 39
55 46
55 47
55 48
55 49
55 50
55 51
55 52
55 53
55 54
56 2
56 8
56 11
56 16
56 20
56 24
56 29
56 32
56 38
56 40
56 47
56 48
56 49
56 50
56 51
56 52
56 53
56 54
56 55
57 1
57 8
57 9
57 15
57 17
57 22
57 25
57 29
57 33
57 36
57 41
57 43
57 49
57 50
58 2
58 10
58 16
58 18
58 23
58 26
58 30
58 34
58 37
58 42
58 44
58 49
58 50
58 51
58 57
59 3
59 11
59 19
59 24
59 27
59 31
59 35
59 38
59 41
59 43
59 45
59 50
59 51
59 52
59 57
59 58
60 4
60 12
60 20
60 28
60 32
60 33
60 36
60 39
60 42
60 44
60 46
60 51
60 52
60 53
60 57
60 58
60 59
61 5
61 13
61 21
61 25
61 29
61 34
61 37
61 40
61 43
61 45
61 47
61 52
61 53
61 54
61 57
61 58
61 59
61 60
62 6
62 14
62 17
62 22
62 26
62 30
62 35
62 38
62 44
62 46
62 48
62 53
62 54
62 55
62 57
62 58
62 59
62 60
62 61
63 7
63 9
63 15
63 18
63 23
63 27
63 31
63 36
63 39
63 45
63 47
63 54
63 55
63 56
63 57
63 58
63 59
63 60
63 61
63 62
64 1
64 8
64 10
64 16
64 19
64 24
64 28
64 32
64 37
64 40
64 46
64 48
64 55
64 56
64 57
64 58
64 59
64 60
64 61
64 62
64 63
9